100
32
22
14
2
15
2
21
19
29
4
28
27
6
6
2
22
13
11
2
2
3
1
4
17
3
2
1
17
2
3
1
3
2
1
2
17
2
2
2
1
16
4
19
1
4
1
1
1
1
2
1
1
1
2
3
6
2
2
1
2
17
3
9
2
2
1
1
1
1
28
2
2
1
1
3
17
1
2
2
1
1
5
3
4
17
3
2
2
2
1
1
2
2
1
2
18
1
5
1
1
1